(declare-fun temp2734_1 () (_ BitVec 64))
(declare-fun ARGNAME_use_input_stats_NAMEEND () (_ BitVec 64))
(declare-fun temp2734_2 () (_ BitVec 64))
(declare-fun var985537 () (_ BitVec 64))
(declare-fun var985545 () (_ BitVec 64))
(declare-fun temp2734_3 () (_ BitVec 64))
(declare-fun temp2734_4 () (_ BitVec 64))
(declare-fun ARGNAME_input_NAMEEND_DIMSIZE
             ()
             (Array (_ BitVec 64) (_ BitVec 64)))
(declare-fun temp2734_5 () (_ BitVec 64))
(declare-fun temp2734_6 () (_ BitVec 64))
(declare-fun temp2734_7 () (_ BitVec 64))
(declare-fun temp2734_8 () (_ BitVec 64))
(declare-fun temp2734_9 () (_ BitVec 64))
(declare-fun temp2734_10 () (_ BitVec 64))
(declare-fun temp2734_11 () (_ BitVec 64))
(declare-fun temp2734_12 () (_ BitVec 64))
(declare-fun temp2734_13 () (_ BitVec 64))
(declare-fun temp2734_14 () (_ BitVec 64))
(declare-fun temp2734_15 () (_ BitVec 64))
(declare-fun temp2734_16 () (_ BitVec 64))
(declare-fun temp2734_17 () (_ BitVec 64))
(declare-fun temp2734_18 () (_ BitVec 64))
(declare-fun temp2734_19 () (_ BitVec 64))
(declare-fun temp2734_20 () (_ BitVec 64))
(declare-fun temp2734_21 () (_ BitVec 64))
(declare-fun temp2734_22 () (_ BitVec 64))
(declare-fun temp2734_23 () (_ BitVec 64))
(declare-fun ARGNAME_input_NAMEEND_DIM () (_ BitVec 64))
(declare-fun temp2734_24 () (_ BitVec 64))
(declare-fun temp2734_25 () (_ BitVec 64))
(declare-fun temp2734_26 () (_ BitVec 64))
(declare-fun temp2734_27 () (_ BitVec 64))
(declare-fun temp2734_28 () (_ BitVec 64))
(declare-fun var2039185 () (_ BitVec 64))
(declare-fun temp2734_29 () (_ BitVec 64))
(declare-fun var2235793 () (_ BitVec 64))
(declare-fun temp2734_30 () (_ BitVec 64))
(declare-fun temp2734_31 () (_ BitVec 64))
(declare-fun temp2734_32 () (_ BitVec 64))
(declare-fun temp2734_33 () (_ BitVec 64))
(declare-fun temp2734_34 () (_ BitVec 64))
(declare-fun var2753483 () (_ BitVec 64))
(declare-fun temp2734_35 () (_ BitVec 64))
(declare-fun var2756010 () (_ BitVec 64))
(declare-fun temp2734_36 () (_ BitVec 64))
(declare-fun temp2734_38 () (_ BitVec 64))
(declare-fun temp2734_37 () (_ BitVec 64))
(declare-fun temp2734_39 () (_ BitVec 64))
(declare-fun temp2734_40 () (_ BitVec 64))
(declare-fun temp2734_42 () (_ BitVec 64))
(declare-fun temp2734_41 () (_ BitVec 64))
(declare-fun temp2734_44 () (_ BitVec 64))
(declare-fun temp2734_43 () (_ BitVec 64))
(declare-fun temp2734_45 () (_ BitVec 64))
(declare-fun temp2734_46 () (_ BitVec 64))
(declare-fun temp2734_48 () (_ BitVec 64))
(declare-fun temp2734_47 () (_ BitVec 64))
(declare-fun temp2734_50 () (_ BitVec 64))
(declare-fun temp2734_49 () (_ BitVec 64))
(declare-fun temp2734_51 () (_ BitVec 64))
(declare-fun var8849857 () (_ BitVec 64))
(declare-fun var8849865 () (_ BitVec 64))
(assert (= temp2734_1 #x0000000000000001))
(assert (= ARGNAME_use_input_stats_NAMEEND temp2734_1))
(assert (= temp2734_2 #x0000000000000002))
(assert (= var985537 temp2734_2))
(assert (= var985545 var985537))
(assert (= temp2734_3 #x0000000000000000))
(assert (= temp2734_4 temp2734_3))
(assert (= temp2734_5 (select ARGNAME_input_NAMEEND_DIMSIZE temp2734_4)))
(assert (= temp2734_6 #x0000000000000001))
(assert (= temp2734_7 temp2734_6))
(assert (= temp2734_8 (select ARGNAME_input_NAMEEND_DIMSIZE temp2734_7)))
(assert (= temp2734_9 #x0000000000000002))
(assert (= temp2734_10 temp2734_9))
(assert (= temp2734_11 (select ARGNAME_input_NAMEEND_DIMSIZE temp2734_10)))
(assert (= temp2734_12 #x0000000000000003))
(assert (= temp2734_13 temp2734_12))
(assert (= temp2734_14 (select ARGNAME_input_NAMEEND_DIMSIZE temp2734_13)))
(assert (= temp2734_15 #x0000000000000004))
(assert (= temp2734_16 temp2734_15))
(assert (= temp2734_17 (select ARGNAME_input_NAMEEND_DIMSIZE temp2734_16)))
(assert (= temp2734_18 #x0000000000000005))
(assert (= temp2734_19 temp2734_18))
(assert (= temp2734_20 (select ARGNAME_input_NAMEEND_DIMSIZE temp2734_19)))
(assert (= temp2734_21 #x0000000000000000))
(assert (= temp2734_22 temp2734_21))
(assert (= temp2734_23 (select ARGNAME_input_NAMEEND_DIMSIZE temp2734_22)))
(assert (bvsgt ARGNAME_input_NAMEEND_DIM temp2734_21))
(assert (bvsge temp2734_21 (bvneg ARGNAME_input_NAMEEND_DIM)))
(assert (= temp2734_24 #x0000000000000001))
(assert (= temp2734_25 temp2734_24))
(assert (= temp2734_26 (select ARGNAME_input_NAMEEND_DIMSIZE temp2734_25)))
(assert (bvsgt ARGNAME_input_NAMEEND_DIM temp2734_24))
(assert (bvsge temp2734_24 (bvneg ARGNAME_input_NAMEEND_DIM)))
(assert (= temp2734_27 temp2734_26))
(assert (= temp2734_28 #x0000000000000001))
(assert (= var2039185 temp2734_28))
(assert (= temp2734_29 #x0000000000000000))
(assert (= var2235793 temp2734_29))
(assert (= temp2734_30 temp2734_23))
(assert (= temp2734_31 temp2734_23))
(assert (= temp2734_32 temp2734_23))
(assert (= temp2734_33 temp2734_23))
(assert (= temp2734_34 #x0000000000000001))
(assert (= var2753483 temp2734_34))
(assert (= temp2734_35 #x0000000000000000))
(assert (= var2756010 temp2734_35))
(assert (= temp2734_36 #x0000000000000000))
(assert (= var2756010 temp2734_36))
(assert (= temp2734_38 #x0000000000000001))
(assert (= temp2734_37 temp2734_38))
(assert (= temp2734_39 temp2734_23))
(assert (= temp2734_40 temp2734_26))
(assert (= temp2734_42 #x0000000000000002))
(assert (= temp2734_41 temp2734_42))
(assert (= temp2734_44 #x0000000000000000))
(assert (= temp2734_43 temp2734_44))
(assert (= temp2734_45 temp2734_23))
(assert (= temp2734_46 temp2734_26))
(assert (= temp2734_48 #x0000000000000002))
(assert (= temp2734_47 temp2734_48))
(assert (= temp2734_50 #x0000000000000000))
(assert (= temp2734_49 temp2734_50))
(assert (= temp2734_51 #x0000000000000002))
(assert (= var8849857 temp2734_51))
(assert (= var8849865 var8849857))
(model-add temp2734_1 () (_ BitVec 64) #x0000000000000001)
(model-add ARGNAME_use_input_stats_NAMEEND () (_ BitVec 64) #x0000000000000001)





